(declare-fun uf3 (Bool Bool Bool) Bool)
(declare-fun uf6 (Bool Bool Bool Bool Bool Bool) Bool)
(declare-fun uf7 (Bool Bool Bool Bool Bool Bool Bool) Bool)
(declare-fun v0 () Bool)
(declare-fun v1 () Bool)
(declare-fun v2 () Bool)
(declare-fun v3 () Bool)
(declare-fun v4 () Bool)
(declare-fun v5 () Bool)
(declare-fun v6 () Bool)
(declare-fun v7 () Bool)
(assert (not (distinct v6 v1)))
(push)
(assert (uf7 (not (distinct v6 v1)) (=> v5 (distinct v6 v1)) (uf6 v3 v3 v6 v0 v2 v0) (=> v5 (distinct v6 v1)) (uf7 v3 v1 v1 v2 v5 v4 v5) (or v3 (= (=> v5 (distinct v6 v1)) (uf3 v4 v2 v7))) (= (=> v5 (distinct v6 v1)) (uf3 v4 v2 v7))))
(check-sat)
(pop)
(check-sat)
